Ba27 Zr27 H1 O81
1.0
  12.5760000000000005    0.0000000000000000    0.0000000000000008
   0.0000000000000020   12.5760000000000005    0.0000000000000008
   0.0000000000000000    0.0000000000000000   12.5760000000000005
Ba Zr O H
27 27 81 1
direct
   0.0000000000000000    0.0000000000000000    0.0000000000000000 Ba
   0.0000000000000000    0.0000000000000000    0.3333333333333334 Ba
   0.0000000000000000    0.0000000000000000    0.6666666666666667 Ba
  -0.0000000000000000    0.3333333333333334   -0.0000000000000000 Ba
  -0.0000000000000000    0.3333333333333334    0.3333333333333333 Ba
  -0.0000000000000000    0.3333333333333334    0.6666666666666667 Ba
  -0.0000000000000000    0.6666666666666667   -0.0000000000000000 Ba
  -0.0000000000000000    0.6666666666666667    0.3333333333333333 Ba
  -0.0000000000000000    0.6666666666666667    0.6666666666666666 Ba
   0.3333333333333334    0.0000000000000000   -0.0000000000000000 Ba
   0.3333333333333334    0.0000000000000000    0.3333333333333333 Ba
   0.3333333333333334    0.0000000000000000    0.6666666666666667 Ba
   0.3333333333333334    0.3333333333333334   -0.0000000000000000 Ba
   0.3333333333333334    0.3333333333333334    0.3333333333333333 Ba
   0.3333333333333334    0.3333333333333334    0.6666666666666666 Ba
   0.3333333333333334    0.6666666666666667   -0.0000000000000000 Ba
   0.3333333333333334    0.6666666666666667    0.3333333333333334 Ba
   0.3333333333333334    0.6666666666666667    0.6666666666666666 Ba
   0.6666666666666667    0.0000000000000000   -0.0000000000000000 Ba
   0.6666666666666667    0.0000000000000000    0.3333333333333333 Ba
   0.6666666666666667    0.0000000000000000    0.6666666666666666 Ba
   0.6666666666666667    0.3333333333333334   -0.0000000000000000 Ba
   0.6666666666666667    0.3333333333333334    0.3333333333333334 Ba
   0.6666666666666667    0.3333333333333334    0.6666666666666666 Ba
   0.6666666666666667    0.6666666666666667   -0.0000000000000000 Ba
   0.6666666666666667    0.6666666666666667    0.3333333333333334 Ba
   0.6666666666666667    0.6666666666666667    0.6666666666666666 Ba
   0.1666666666666667    0.1666666666666667    0.1666666666666667 Zr
   0.1666666666666667    0.1666666666666667    0.5000000000000000 Zr
   0.1666666666666667    0.1666666666666667    0.8333333333333334 Zr
   0.1666666666666667    0.4999999999999999    0.1666666666666667 Zr
   0.1666666666666667    0.4999999999999999    0.5000000000000000 Zr
   0.1666666666666667    0.4999999999999999    0.8333333333333335 Zr
   0.1666666666666667    0.8333333333333334    0.1666666666666667 Zr
   0.1666666666666667    0.8333333333333334    0.5000000000000000 Zr
   0.1666666666666667    0.8333333333333334    0.8333333333333335 Zr
   0.4999999999999999    0.1666666666666667    0.1666666666666667 Zr
   0.4999999999999999    0.1666666666666667    0.5000000000000000 Zr
   0.4999999999999999    0.1666666666666667    0.8333333333333335 Zr
   0.4999999999999999    0.4999999999999999    0.1666666666666667 Zr
   0.4999999999999999    0.4999999999999999    0.5000000000000000 Zr
   0.4999999999999999    0.4999999999999999    0.8333333333333335 Zr
   0.5000000000000000    0.8333333333333334    0.1666666666666667 Zr
   0.5000000000000000    0.8333333333333334    0.4999999999999999 Zr
   0.5000000000000000    0.8333333333333334    0.8333333333333335 Zr
   0.8333333333333334    0.1666666666666667    0.1666666666666667 Zr
   0.8333333333333334    0.1666666666666667    0.5000000000000000 Zr
   0.8333333333333334    0.1666666666666667    0.8333333333333335 Zr
   0.8333333333333335    0.4999999999999999    0.1666666666666667 Zr
   0.8333333333333335    0.4999999999999999    0.4999999999999999 Zr
   0.8333333333333335    0.4999999999999999    0.8333333333333335 Zr
   0.8333333333333335    0.8333333333333334    0.1666666666666667 Zr
   0.8333333333333335    0.8333333333333334    0.5000000000000000 Zr
   0.8333333333333335    0.8333333333333334    0.8333333333333335 Zr
   0.1666666666666667    0.1666666666666667   -0.0000000000000000 O
   0.1666666666666667    0.0000000000000000    0.1666666666666667 O
  -0.0000000000000000    0.1666666666666667    0.1666666666666667 O
   0.1666666666666667    0.1666666666666667    0.3333333333333333 O
   0.1666666666666667    0.0000000000000000    0.4999999999999999 O
  -0.0000000000000000    0.1666666666666667    0.4999999999999999 O
   0.1666666666666667    0.1666666666666667    0.6666666666666667 O
   0.1666666666666667    0.0000000000000000    0.8333333333333334 O
  -0.0000000000000000    0.1666666666666667    0.8333333333333334 O
   0.1666666666666667    0.4999999999999999   -0.0000000000000000 O
   0.1666666666666667    0.3333333333333334    0.1666666666666667 O
  -0.0000000000000000    0.4999999999999999    0.1666666666666667 O
   0.1666666666666667    0.4999999999999999    0.3333333333333333 O
   0.1666666666666667    0.3333333333333334    0.5000000000000000 O
  -0.0000000000000000    0.4999999999999999    0.5000000000000000 O
   0.1666666666666667    0.4999999999999999    0.6666666666666666 O
   0.1666666666666667    0.3333333333333334    0.8333333333333334 O
  -0.0000000000000000    0.4999999999999999    0.8333333333333334 O
   0.1666666666666667    0.8333333333333334   -0.0000000000000000 O
   0.1666666666666667    0.6666666666666667    0.1666666666666667 O
  -0.0000000000000000    0.8333333333333334    0.1666666666666667 O
   0.1666666666666667    0.8333333333333334    0.3333333333333334 O
   0.1666666666666667    0.6666666666666667    0.5000000000000000 O
  -0.0000000000000000    0.8333333333333334    0.5000000000000000 O
   0.1666666666666667    0.8333333333333334    0.6666666666666666 O
   0.1666666666666667    0.6666666666666667    0.8333333333333335 O
  -0.0000000000000000    0.8333333333333334    0.8333333333333335 O
   0.4999999999999999    0.1666666666666667   -0.0000000000000000 O
   0.4999999999999999    0.0000000000000000    0.1666666666666667 O
   0.3333333333333334    0.1666666666666667    0.1666666666666667 O
   0.4999999999999999    0.1666666666666667    0.3333333333333333 O
   0.4999999999999999    0.0000000000000000    0.5000000000000000 O
   0.3333333333333334    0.1666666666666667    0.5000000000000000 O
   0.4999999999999999    0.1666666666666667    0.6666666666666666 O
   0.4999999999999999    0.0000000000000000    0.8333333333333334 O
   0.3333333333333334    0.1666666666666667    0.8333333333333334 O
   0.4999999999999999    0.4999999999999999   -0.0000000000000000 O
   0.4999999999999999    0.3333333333333334    0.1666666666666667 O
   0.3333333333333334    0.4999999999999999    0.1666666666666667 O
   0.4999999999999999    0.4999999999999999    0.3333333333333334 O
   0.4999999999999999    0.3333333333333334    0.5000000000000000 O
   0.3333333333333334    0.4999999999999999    0.5000000000000000 O
   0.4999999999999999    0.4999999999999999    0.6666666666666666 O
   0.4999999999999999    0.3333333333333334    0.8333333333333335 O
   0.3333333333333334    0.4999999999999999    0.8333333333333335 O
   0.5000000000000000    0.8333333333333334   -0.0000000000000000 O
   0.5000000000000000    0.6666666666666667    0.1666666666666667 O
   0.3333333333333334    0.8333333333333334    0.1666666666666667 O
   0.5000000000000000    0.8333333333333334    0.3333333333333334 O
   0.5000000000000000    0.6666666666666667    0.4999999999999999 O
   0.3333333333333334    0.8333333333333334    0.4999999999999999 O
   0.5000000000000000    0.8333333333333334    0.6666666666666666 O
   0.5000000000000000    0.6666666666666667    0.8333333333333335 O
   0.3333333333333334    0.8333333333333334    0.8333333333333335 O
   0.8333333333333334    0.1666666666666667   -0.0000000000000000 O
   0.8333333333333334    0.0000000000000000    0.1666666666666667 O
   0.6666666666666667    0.1666666666666667    0.1666666666666667 O
   0.8333333333333334    0.1666666666666667    0.3333333333333334 O
   0.8333333333333334    0.0000000000000000    0.5000000000000000 O
   0.6666666666666667    0.1666666666666667    0.5000000000000000 O
   0.8333333333333334    0.1666666666666667    0.6666666666666666 O
   0.8333333333333334    0.0000000000000000    0.8333333333333335 O
   0.6666666666666667    0.1666666666666667    0.8333333333333335 O
   0.8333333333333335    0.4999999999999999   -0.0000000000000000 O
   0.8333333333333334    0.3333333333333334    0.1666666666666667 O
   0.6666666666666667    0.4999999999999999    0.1666666666666667 O
   0.8333333333333335    0.4999999999999999    0.3333333333333334 O
   0.8333333333333334    0.3333333333333334    0.4999999999999999 O
   0.6666666666666667    0.4999999999999999    0.4999999999999999 O
   0.8333333333333335    0.4999999999999999    0.6666666666666666 O
   0.8333333333333334    0.3333333333333334    0.8333333333333335 O
   0.6666666666666667    0.4999999999999999    0.8333333333333335 O
   0.8333333333333335    0.8333333333333334   -0.0000000000000000 O
   0.8333333333333335    0.6666666666666667    0.1666666666666667 O
   0.6666666666666667    0.8333333333333334    0.1666666666666667 O
   0.8333333333333335    0.8333333333333334    0.3333333333333333 O
   0.8333333333333335    0.6666666666666667    0.5000000000000000 O
   0.6666666666666667    0.8333333333333334    0.5000000000000000 O
   0.8333333333333335    0.8333333333333334    0.6666666666666666 O
   0.8333333333333335    0.6666666666666667    0.8333333333333335 O
   0.6666666666666667    0.8333333333333334    0.8333333333333335 O
   0.1420242357906727    0.1666666666666667    0.0739272926279822 H
