Ba1 Zr1 H1 O3
1.0
   4.1920000000000002    0.0000000000000000    0.0000000000000003
  -0.0000000000000003    4.1920000000000002    0.0000000000000003
   0.0000000000000000    0.0000000000000000    4.1920000000000002
Ba Zr O H
1 1 3 1
direct
   0.0000000000000000    0.0000000000000000    0.0000000000000000 Ba2+
   0.5000000000000000    0.5000000000000000    0.5000000000000000 Zr4+
   0.5000000000000000    0.5000000000000000    0.0000000000000000 O2-
   0.5000000000000000    0.0000000000000000    0.4999999999999999 O2-
  -0.0000000000000000    0.5000000000000000    0.4999999999999999 O2-
   0.4045602756072076    0.5954397243927924    0.8091205512144152 H0+
